4 92 195 182 169 57 133 40 147 31 45 56 108 53 168 65 99 94 151 38 32 23 117 112 160 109 189 125 86 114 52 74 101 192 50 33 157 
84 199 127 88 155 118 105 69 176 113 191 134 58 144 71 87 137 123 115 121 11 13 8 1 60 75 175 
140 54 100 37 9 12 165 85 128 177 59 143 173 188 29 89 139 21 166 129 106 22 41 194 55 81 107 17 174 97 30 64 67 
142 152 156 131 48 24 102 15 179 7 68 167 18 196 124 43 180 3 132 78 171 130 136 184 27 51 198 111 110 90 44 95 145 91 80 116 178 126 70 158 66 82 154 
153 47 162 63 149 42 172 197 5 181 35 170 104 164 62 159 20 26 10 25 77 122 46 138 186 135 96 34 76 2 141 185 120 39 
163 28 6 49 14 200 103 183 190 16 98 119 61 161 72 150 187 79 73 93 193 19 146 83 148 36 
